proyfinal/src/viki/013/experimentInOfficeAgust.take6.output/69a300e9-20ed-452a-b57f-675f13dd9a67.als.dat
{'cnf.clauses': '118081',
 'cnf.totvars': '69608',
 'conflict literals': '59',
 'conflicts': '18',
 'decisions': '2071',
 'memused.mb': '16.64',
 'outcome': 'UNSAT',
 'propagations': '18804',
 'restarts': '1',
 'solver.msecs': 35,
 'task.msecs': 82}
