proyfinal/src/viki/013/experimentInOfficeAgust.take6.output/69a300e9-20ed-452a-b57f-675f13dd9a67.als.out
Reading from standard input... Use '--help' for help.
============================[ Problem Statistics ]=============================
|                                                                             |
|  Number of variables:         69608                                         |
|  Number of clauses:          118081                                         |
|  Parse time:                   0.02 s                                       |
|                                                                             |
============================[ Search Statistics ]==============================
| Conflicts |          ORIGINAL         |          LEARNT          | Progress |
|           |    Vars  Clauses Literals |    Limit  Clauses Lit/Cl |          |
===============================================================================
===============================================================================
restarts              : 1
conflicts             : 18             (505 /sec)
decisions             : 2071           (0.00 % random) (58070 /sec)
propagations          : 18804          (527254 /sec)
conflict literals     : 59             (0.00 % deleted)
Memory used           : 16.64 MB
CPU time              : 0.035664 s

UNSATISFIABLE
